\* rank_agg *\
Minimize
OBJ: 4 X_0_1 + 4 X_0_2 + X_1_2 + 3 X_2_1 + 4 X_3_0 + 4 X_3_1 + 4 X_3_2
 + 4 X_4_0 + 4 X_4_1 + 4 X_4_2 + 4 X_4_3 + 4 X_5_0 + 4 X_5_1 + 4 X_5_2
 + 4 X_5_3 + 4 X_5_4
Subject To
_C1: X_0_1 + X_1_0 = 1
_C10: X_1_5 + X_5_1 = 1
_C100: X_1_3 + X_2_1 + X_3_2 <= 2
_C101: X_2_4 + X_3_2 + X_4_3 <= 2
_C102: X_2_5 + X_3_2 + X_5_3 <= 2
_C103: X_0_3 + X_3_4 + X_4_0 <= 2
_C104: X_1_3 + X_3_4 + X_4_1 <= 2
_C105: X_2_3 + X_3_4 + X_4_2 <= 2
_C106: X_3_4 + X_4_5 + X_5_3 <= 2
_C107: X_0_3 + X_3_5 + X_5_0 <= 2
_C108: X_1_3 + X_3_5 + X_5_1 <= 2
_C109: X_2_3 + X_3_5 + X_5_2 <= 2
_C11: X_0_2 + X_2_0 = 1
_C110: X_3_5 + X_4_3 + X_5_4 <= 2
_C111: X_0_1 + X_1_4 + X_4_0 <= 2
_C112: X_0_2 + X_2_4 + X_4_0 <= 2
_C113: X_0_3 + X_3_4 + X_4_0 <= 2
_C114: X_0_5 + X_4_0 + X_5_4 <= 2
_C115: X_0_4 + X_1_0 + X_4_1 <= 2
_C116: X_1_2 + X_2_4 + X_4_1 <= 2
_C117: X_1_3 + X_3_4 + X_4_1 <= 2
_C118: X_1_5 + X_4_1 + X_5_4 <= 2
_C119: X_0_4 + X_2_0 + X_4_2 <= 2
_C12: X_1_2 + X_2_1 = 1
_C120: X_1_4 + X_2_1 + X_4_2 <= 2
_C121: X_2_3 + X_3_4 + X_4_2 <= 2
_C122: X_2_5 + X_4_2 + X_5_4 <= 2
_C123: X_0_4 + X_3_0 + X_4_3 <= 2
_C124: X_1_4 + X_3_1 + X_4_3 <= 2
_C125: X_2_4 + X_3_2 + X_4_3 <= 2
_C126: X_3_5 + X_4_3 + X_5_4 <= 2
_C127: X_0_4 + X_4_5 + X_5_0 <= 2
_C128: X_1_4 + X_4_5 + X_5_1 <= 2
_C129: X_2_4 + X_4_5 + X_5_2 <= 2
_C13: X_2_3 + X_3_2 = 1
_C130: X_3_4 + X_4_5 + X_5_3 <= 2
_C131: X_0_1 + X_1_5 + X_5_0 <= 2
_C132: X_0_2 + X_2_5 + X_5_0 <= 2
_C133: X_0_3 + X_3_5 + X_5_0 <= 2
_C134: X_0_4 + X_4_5 + X_5_0 <= 2
_C135: X_0_5 + X_1_0 + X_5_1 <= 2
_C136: X_1_2 + X_2_5 + X_5_1 <= 2
_C137: X_1_3 + X_3_5 + X_5_1 <= 2
_C138: X_1_4 + X_4_5 + X_5_1 <= 2
_C139: X_0_5 + X_2_0 + X_5_2 <= 2
_C14: X_2_4 + X_4_2 = 1
_C140: X_1_5 + X_2_1 + X_5_2 <= 2
_C141: X_2_3 + X_3_5 + X_5_2 <= 2
_C142: X_2_4 + X_4_5 + X_5_2 <= 2
_C143: X_0_5 + X_3_0 + X_5_3 <= 2
_C144: X_1_5 + X_3_1 + X_5_3 <= 2
_C145: X_2_5 + X_3_2 + X_5_3 <= 2
_C146: X_3_4 + X_4_5 + X_5_3 <= 2
_C147: X_0_5 + X_4_0 + X_5_4 <= 2
_C148: X_1_5 + X_4_1 + X_5_4 <= 2
_C149: X_2_5 + X_4_2 + X_5_4 <= 2
_C15: X_2_5 + X_5_2 = 1
_C150: X_3_5 + X_4_3 + X_5_4 <= 2
_C151: 0.125 X_0_2 + 0.125 X_0_3 + 0.125 X_0_4 + 0.125 X_0_5 + 0.125 X_1_2
 + 0.125 X_1_3 + 0.125 X_1_4 + 0.125 X_1_5 - 0.125 X_2_0 - 0.125 X_2_1
 - 0.125 X_2_4 - 0.125 X_2_5 - 0.125 X_3_0 - 0.125 X_3_1 - 0.125 X_3_4
 - 0.125 X_3_5 <= 0.05
_C152: - 0.125 X_0_2 - 0.125 X_0_3 - 0.125 X_0_4 - 0.125 X_0_5 - 0.125 X_1_2
 - 0.125 X_1_3 - 0.125 X_1_4 - 0.125 X_1_5 + 0.125 X_2_0 + 0.125 X_2_1
 + 0.125 X_2_4 + 0.125 X_2_5 + 0.125 X_3_0 + 0.125 X_3_1 + 0.125 X_3_4
 + 0.125 X_3_5 <= 0.05
_C153: 0.125 X_0_2 + 0.125 X_0_3 + 0.125 X_0_4 + 0.125 X_0_5 + 0.125 X_1_2
 + 0.125 X_1_3 + 0.125 X_1_4 + 0.125 X_1_5 - 0.125 X_4_0 - 0.125 X_4_1
 - 0.125 X_4_2 - 0.125 X_4_3 - 0.125 X_5_0 - 0.125 X_5_1 - 0.125 X_5_2
 - 0.125 X_5_3 <= 0.05
_C154: - 0.125 X_0_2 - 0.125 X_0_3 - 0.125 X_0_4 - 0.125 X_0_5 - 0.125 X_1_2
 - 0.125 X_1_3 - 0.125 X_1_4 - 0.125 X_1_5 + 0.125 X_4_0 + 0.125 X_4_1
 + 0.125 X_4_2 + 0.125 X_4_3 + 0.125 X_5_0 + 0.125 X_5_1 + 0.125 X_5_2
 + 0.125 X_5_3 <= 0.05
_C155: 0.125 X_2_0 + 0.125 X_2_1 + 0.125 X_2_4 + 0.125 X_2_5 + 0.125 X_3_0
 + 0.125 X_3_1 + 0.125 X_3_4 + 0.125 X_3_5 - 0.125 X_4_0 - 0.125 X_4_1
 - 0.125 X_4_2 - 0.125 X_4_3 - 0.125 X_5_0 - 0.125 X_5_1 - 0.125 X_5_2
 - 0.125 X_5_3 <= 0.05
_C156: - 0.125 X_2_0 - 0.125 X_2_1 - 0.125 X_2_4 - 0.125 X_2_5 - 0.125 X_3_0
 - 0.125 X_3_1 - 0.125 X_3_4 - 0.125 X_3_5 + 0.125 X_4_0 + 0.125 X_4_1
 + 0.125 X_4_2 + 0.125 X_4_3 + 0.125 X_5_0 + 0.125 X_5_1 + 0.125 X_5_2
 + 0.125 X_5_3 <= 0.05
_C16: X_0_3 + X_3_0 = 1
_C17: X_1_3 + X_3_1 = 1
_C18: X_2_3 + X_3_2 = 1
_C19: X_3_4 + X_4_3 = 1
_C2: X_0_2 + X_2_0 = 1
_C20: X_3_5 + X_5_3 = 1
_C21: X_0_4 + X_4_0 = 1
_C22: X_1_4 + X_4_1 = 1
_C23: X_2_4 + X_4_2 = 1
_C24: X_3_4 + X_4_3 = 1
_C25: X_4_5 + X_5_4 = 1
_C26: X_0_5 + X_5_0 = 1
_C27: X_1_5 + X_5_1 = 1
_C28: X_2_5 + X_5_2 = 1
_C29: X_3_5 + X_5_3 = 1
_C3: X_0_3 + X_3_0 = 1
_C30: X_4_5 + X_5_4 = 1
_C31: X_0_1 + X_1_2 + X_2_0 <= 2
_C32: X_0_1 + X_1_3 + X_3_0 <= 2
_C33: X_0_1 + X_1_4 + X_4_0 <= 2
_C34: X_0_1 + X_1_5 + X_5_0 <= 2
_C35: X_0_2 + X_1_0 + X_2_1 <= 2
_C36: X_0_2 + X_2_3 + X_3_0 <= 2
_C37: X_0_2 + X_2_4 + X_4_0 <= 2
_C38: X_0_2 + X_2_5 + X_5_0 <= 2
_C39: X_0_3 + X_1_0 + X_3_1 <= 2
_C4: X_0_4 + X_4_0 = 1
_C40: X_0_3 + X_2_0 + X_3_2 <= 2
_C41: X_0_3 + X_3_4 + X_4_0 <= 2
_C42: X_0_3 + X_3_5 + X_5_0 <= 2
_C43: X_0_4 + X_1_0 + X_4_1 <= 2
_C44: X_0_4 + X_2_0 + X_4_2 <= 2
_C45: X_0_4 + X_3_0 + X_4_3 <= 2
_C46: X_0_4 + X_4_5 + X_5_0 <= 2
_C47: X_0_5 + X_1_0 + X_5_1 <= 2
_C48: X_0_5 + X_2_0 + X_5_2 <= 2
_C49: X_0_5 + X_3_0 + X_5_3 <= 2
_C5: X_0_5 + X_5_0 = 1
_C50: X_0_5 + X_4_0 + X_5_4 <= 2
_C51: X_0_2 + X_1_0 + X_2_1 <= 2
_C52: X_0_3 + X_1_0 + X_3_1 <= 2
_C53: X_0_4 + X_1_0 + X_4_1 <= 2
_C54: X_0_5 + X_1_0 + X_5_1 <= 2
_C55: X_0_1 + X_1_2 + X_2_0 <= 2
_C56: X_1_2 + X_2_3 + X_3_1 <= 2
_C57: X_1_2 + X_2_4 + X_4_1 <= 2
_C58: X_1_2 + X_2_5 + X_5_1 <= 2
_C59: X_0_1 + X_1_3 + X_3_0 <= 2
_C6: X_0_1 + X_1_0 = 1
_C60: X_1_3 + X_2_1 + X_3_2 <= 2
_C61: X_1_3 + X_3_4 + X_4_1 <= 2
_C62: X_1_3 + X_3_5 + X_5_1 <= 2
_C63: X_0_1 + X_1_4 + X_4_0 <= 2
_C64: X_1_4 + X_2_1 + X_4_2 <= 2
_C65: X_1_4 + X_3_1 + X_4_3 <= 2
_C66: X_1_4 + X_4_5 + X_5_1 <= 2
_C67: X_0_1 + X_1_5 + X_5_0 <= 2
_C68: X_1_5 + X_2_1 + X_5_2 <= 2
_C69: X_1_5 + X_3_1 + X_5_3 <= 2
_C7: X_1_2 + X_2_1 = 1
_C70: X_1_5 + X_4_1 + X_5_4 <= 2
_C71: X_0_1 + X_1_2 + X_2_0 <= 2
_C72: X_0_3 + X_2_0 + X_3_2 <= 2
_C73: X_0_4 + X_2_0 + X_4_2 <= 2
_C74: X_0_5 + X_2_0 + X_5_2 <= 2
_C75: X_0_2 + X_1_0 + X_2_1 <= 2
_C76: X_1_3 + X_2_1 + X_3_2 <= 2
_C77: X_1_4 + X_2_1 + X_4_2 <= 2
_C78: X_1_5 + X_2_1 + X_5_2 <= 2
_C79: X_0_2 + X_2_3 + X_3_0 <= 2
_C8: X_1_3 + X_3_1 = 1
_C80: X_1_2 + X_2_3 + X_3_1 <= 2
_C81: X_2_3 + X_3_4 + X_4_2 <= 2
_C82: X_2_3 + X_3_5 + X_5_2 <= 2
_C83: X_0_2 + X_2_4 + X_4_0 <= 2
_C84: X_1_2 + X_2_4 + X_4_1 <= 2
_C85: X_2_4 + X_3_2 + X_4_3 <= 2
_C86: X_2_4 + X_4_5 + X_5_2 <= 2
_C87: X_0_2 + X_2_5 + X_5_0 <= 2
_C88: X_1_2 + X_2_5 + X_5_1 <= 2
_C89: X_2_5 + X_3_2 + X_5_3 <= 2
_C9: X_1_4 + X_4_1 = 1
_C90: X_2_5 + X_4_2 + X_5_4 <= 2
_C91: X_0_1 + X_1_3 + X_3_0 <= 2
_C92: X_0_2 + X_2_3 + X_3_0 <= 2
_C93: X_0_4 + X_3_0 + X_4_3 <= 2
_C94: X_0_5 + X_3_0 + X_5_3 <= 2
_C95: X_0_3 + X_1_0 + X_3_1 <= 2
_C96: X_1_2 + X_2_3 + X_3_1 <= 2
_C97: X_1_4 + X_3_1 + X_4_3 <= 2
_C98: X_1_5 + X_3_1 + X_5_3 <= 2
_C99: X_0_3 + X_2_0 + X_3_2 <= 2
Binaries
X_0_1
X_0_2
X_0_3
X_0_4
X_0_5
X_1_0
X_1_2
X_1_3
X_1_4
X_1_5
X_2_0
X_2_1
X_2_3
X_2_4
X_2_5
X_3_0
X_3_1
X_3_2
X_3_4
X_3_5
X_4_0
X_4_1
X_4_2
X_4_3
X_4_5
X_5_0
X_5_1
X_5_2
X_5_3
X_5_4
End
